
































































































70 30 26 7 
36 68 1 6 3 
11 32 35 17 61 
12 46 41 29 
8 52 20 45 
44 49 72 59 
71 63 51 15 56 
50 54 64 10 31 
25 67 66 14 
53 57 75 42 9 
55 74 69 76 24 
48 13 40 34 
21 38 73 16 47 
23 4 43 18 
2 33 5 
60 39 58 19 
27 62 37 28 
0 22 65 
